unknown
(model
; cardinality of BoundSet is 2
(declare-sort BoundSet 0)
; rep: @uc_BoundSet_0
; rep: @uc_BoundSet_1
; cardinality of UnboundSet is 1
(declare-sort UnboundSet 0)
(declare-fun groundTerm_3 () UnboundSet)
(define-fun IsBrownAndWhite ((BOUND_VARIABLE_411 BoundSet)) Bool true)
(define-fun IsNear ((BOUND_VARIABLE_418 BoundSet) (BOUND_VARIABLE_419 BoundSet)) Bool true)
(define-fun IsChainedTo ((BOUND_VARIABLE_418 BoundSet) (BOUND_VARIABLE_419 BoundSet)) Bool false)
)
sat
(model
; cardinality of BoundSet is 1
(declare-sort BoundSet 0)
; rep: @uc_BoundSet_0
; cardinality of UnboundSet is 1
(declare-sort UnboundSet 0)
(declare-fun groundTerm_5 () UnboundSet)
(define-fun IsBrownAndWhite ((BOUND_VARIABLE_442 BoundSet)) Bool true)
(define-fun IsNear ((BOUND_VARIABLE_449 BoundSet) (BOUND_VARIABLE_450 BoundSet)) Bool true)
(define-fun IsChainedTo ((BOUND_VARIABLE_449 BoundSet) (BOUND_VARIABLE_450 BoundSet)) Bool false)
)
